param set_len = 92;
param target := 6036;
set values := 125, 166, 43, 57, 74, 149, 237, 29, 206, 239, 14, 251, 194, 147, 42, 138, 211, 168, 238, 126, 87, 164, 235, 140, 171, 221, 85, 164, 208, 61, 189, 134, 7, 163, 56, 117, 24, 48, 79, 70, 20, 60, 32, 125, 3, 172, 54, 159, 197, 214, 185, 125, 220, 228, 52, 215, 195, 171, 80, 215, 116, 179, 217, 206, 86, 65, 197, 114, 48, 222, 203, 209, 10, 239, 5, 96, 173, 237, 235, 119, 143, 189, 161, 254, 116, 26, 146, 95, 117, 220, 145, 203, ;
